Route #1: 1 14 27 22 10 34 6 2 1
Route #2: 1 15 8 17 25 37 30 1
Route #3: 1 36 28 26 33 1
Route #4: 1 7 9 4 3 29 24 13 1
Route #5: 1 31 16 12 11 23 21 1
Route #6: 1 32 20 35 18 5 19 1
cost 1084.540966162303